MACHINES = {m1,m2,m3,m4,m5,m6,m7,m8,m9,m10,m11,m12,m13,m14,m15,m16};
no_stages = 4;
stage_machines = [{m1,m2,m3,m4},
                  {m5,m6,m7,m8},
                  {m9,m10,m11,m12},
                  {m13,m14,m15,m16}];
%% this is needed to avoid enum error.
unit_speed_factor = array1d(MACHINES,[1,3,2,4,5,4,3,4,2,7,1,2,3,4,5,3]);

no_orders = 5;         

order_size = [4,6,3,2,4];

deadline = [10,30,15,20,10];

no_excludes = 4;
excludes = [|m1,m5| m2, m7|m8,m12| m9,m13|];